Gurobi Optimizer version 9.1.2 build v9.1.2rc0 (linux64)
Thread count: 36 physical cores, 72 logical processors, using up to 32 threads
Optimize a model with 12 rows, 57 columns and 590 nonzeros
Model fingerprint: 0xf32eec78
Model has 47 quadratic constraints
Coefficient statistics:
  Matrix range     [2e-05, 3e+00]
  QMatrix range    [1e+00, 1e+00]
  QLMatrix range   [1e+00, 1e+00]
  Objective range  [8e-03, 7e-01]
  Bounds range     [1e+00, 1e+00]
  RHS range        [1e+00, 1e+00]
Presolve removed 9 rows and 0 columns

Continuous model is non-convex -- solving as a MIP.

Presolve removed 9 rows and 0 columns
Presolve time: 0.00s
Presolved: 189 rows, 57 columns, 443 nonzeros
Presolved model has 47 bilinear constraint(s)
Variable types: 57 continuous, 0 integer (0 binary)

Root relaxation: objective -1.743721e+00, 44 iterations, 0.00 seconds

    Nodes    |    Current Node    |     Objective Bounds      |     Work
 Expl Unexpl |  Obj  Depth IntInf | Incumbent    BestBd   Gap | It/Node Time

     0     0   -1.74372    0   38          -   -1.74372      -     -    0s
H    0     0                       0.6147548   -1.74372   384%     -    0s
     0     0   -1.64739    0    1    0.61475   -1.64739   368%     -    0s
H    0     0                      -1.6450460   -1.64739  0.14%     -    0s
     0     0     cutoff    0        -1.64505   -1.64505  0.00%     -    0s

Cutting planes:
  RLT: 25
  BQP: 3

Explored 1 nodes (76 simplex iterations) in 0.01 seconds
Thread count was 32 (of 72 available processors)

Solution count 2: -1.64505 0.614755 
No other solutions better than -1.64505

Optimal solution found (tolerance 1.00e-04)
Best objective -1.645045978473e+00, best bound -1.645045978473e+00, gap 0.0000%

User-callback calls 78, time in user-callback 0.00 sec
Gurobi Optimizer version 9.1.2 build v9.1.2rc0 (linux64)
Thread count: 36 physical cores, 72 logical processors, using up to 32 threads
Optimize a model with 24 rows, 125 columns and 2580 nonzeros
Model fingerprint: 0x78b3935b
Model has 105 quadratic constraints
Coefficient statistics:
  Matrix range     [6e-06, 5e+01]
  QMatrix range    [1e+00, 1e+00]
  QLMatrix range   [1e+00, 1e+00]
  Objective range  [1e-02, 1e+00]
  Bounds range     [1e+00, 1e+00]
  RHS range        [1e+00, 1e+00]
Presolve removed 10 rows and 0 columns

Continuous model is non-convex -- solving as a MIP.

Presolve removed 10 rows and 0 columns
Presolve time: 0.00s
Presolved: 429 rows, 125 columns, 2142 nonzeros
Presolved model has 105 bilinear constraint(s)
Variable types: 125 continuous, 0 integer (0 binary)

Root relaxation: objective -4.800741e+00, 140 iterations, 0.00 seconds

    Nodes    |    Current Node    |     Objective Bounds      |     Work
 Expl Unexpl |  Obj  Depth IntInf | Incumbent    BestBd   Gap | It/Node Time

     0     0   -4.80074    0   75          -   -4.80074      -     -    0s
H    0     0                       0.1521283   -4.80074  3256%     -    0s
     0     0   -4.03805    0   83    0.15213   -4.03805  2754%     -    0s
H    0     0                      -2.2080616   -4.03805  82.9%     -    0s
     0     0   -4.03251    0   65   -2.20806   -4.03251  82.6%     -    0s
     0     0   -3.85462    0   68   -2.20806   -3.85462  74.6%     -    0s
     0     0   -3.85177    0   57   -2.20806   -3.85177  74.4%     -    0s
     0     0   -3.83570    0   95   -2.20806   -3.83570  73.7%     -    0s
     0     0   -3.83345    0   61   -2.20806   -3.83345  73.6%     -    0s
     0     0   -3.82094    0   57   -2.20806   -3.82094  73.0%     -    0s
     0     0   -3.81925    0   68   -2.20806   -3.81925  73.0%     -    0s
     0     0   -3.81727    0   48   -2.20806   -3.81727  72.9%     -    0s
     0     0   -3.81608    0   39   -2.20806   -3.81608  72.8%     -    0s
     0     0   -3.81605    0   39   -2.20806   -3.81605  72.8%     -    0s
H    0     0                      -2.6489588   -3.81605  44.1%     -    0s
H    0     0                      -3.2396502   -3.81605  17.8%     -    0s
H    0     0                      -3.2766571   -3.81605  16.5%     -    0s
H    0     0                      -3.2898404   -3.81605  16.0%     -    0s
H    0     0                      -3.3027149   -3.81605  15.5%     -    0s
     0     2   -3.81605    0   39   -3.30271   -3.81605  15.5%     -    0s
*  225    83              13      -3.3027210   -3.31342  0.32%  17.3    0s
*  235   111              15      -3.3040731   -3.31342  0.28%  16.7    0s
*  278   111              15      -3.3048955   -3.31342  0.26%  14.9    0s
*  313   112              16      -3.3062903   -3.31342  0.22%  13.6    0s
*  314   112              16      -3.3063302   -3.31342  0.21%  13.6    0s
*  333   112              16      -3.3066937   -3.31342  0.20%  13.1    0s
*  372   117              19      -3.3097907   -3.31225  0.07%  11.9    0s
*  373   117              19      -3.3097973   -3.31225  0.07%  11.9    0s
*  440   117              19      -3.3099758   -3.31225  0.07%  10.5    0s
*  451    68              19      -3.3102319   -3.31225  0.06%  10.3    0s
*  542    14              16      -3.3102409   -3.31151  0.04%   9.1    0s
*  597     7              17      -3.3102546   -3.31090  0.02%   8.4    0s
*  629     0              20      -3.3102546   -3.31026  0.00%   8.1    0s

Cutting planes:
  RLT: 43
  BQP: 8
  PSD: 7

Explored 633 nodes (5490 simplex iterations) in 0.39 seconds
Thread count was 32 (of 72 available processors)

Solution count 10: -3.31025 -3.31025 -3.31024 ... -3.30629
No other solutions better than -3.31025

Optimal solution found (tolerance 1.00e-04)
Best objective -3.310254646096e+00, best bound -3.310254646096e+00, gap 0.0000%

User-callback calls 1511, time in user-callback 0.00 sec



objective value: -3.3102546460955202
objective bound: -3.3102546460955202
x_opt: [1.0, 0.0, 1.0, 0.0, 0.11976651231159856, 0.0, 1.0, 1.0, 0.5501085490172268, 0.0, 0.0, 0.0, 0.6474451107130696, 0.0, 0.4500346584888068, 0.2861070684177622, 0.0, 0.0, 0.0, 0.0]
GUROBI solution time: 0.3862779140472412




